myproject/instances/20nodes/rnd7_20.tsp
NAME : rnd7_20.tsp
TYPE : TSP
DIMENSION : 20
EDGE_WEIGHT_TYPE : EUC_2D
NODE_COORD_SECTION
1 988 189
2 576 689
3 721 324
4 762 393
5 321 361
6 882 898
7 480 478
8 235 718
9 135 371
10 581 25
11 871 389
12 489 876
13 278 858
14 509 344
15 7 230
16 608 900
17 330 481
18 410 361
19 836 780
20 621 127
