myproject/instances/20nodes/rnd7_20.opt.tour
NAME : rnd7_20.tsp.tsp.optbc.tour
TYPE : TOUR
DIMENSION : 20
TOUR_SECTION
0
14
9
1
12
7
2
4
3
6
15
8
11
16
10
17
13
19
5
18
-1